35 87 10
1 20 22 84 86
2 52 54
3 20 21 22 23
3 24 26 80 82
3 84 85 86 87
4 24 25 26 27
4 28 30 76 78
4 80 81 82 83
5 28 29 30 31
5 32 34 72 74
5 76 77 78 79
6 32 33 34 35
6 36 38 68 70
6 72 73 74 75
7 36 37 38 39
7 40 42 64 66
7 68 69 70 71
8 40 41 42 43
8 44 46 60 62
8 64 65 66 67
9 44 45 46 47
9 48 50 56 58
9 60 61 62 63
10 48 49 50 51
10 53 55
10 56 57 58 59
11 52 53 54 55
12 21 23 85 87
13 25 27 81 83
14 29 31 77 79
15 33 35 73 75
16 37 39 69 71
17 41 43 65 67
18 45 47 61 63
19 49 51 57 59
1
1
1
1
1
1
1
1
1
1
1
1
1
1
1
1
1
1
1
0
0
0
0
0
0
0
0
0
0
0
0
0
0
0
0
0
0
0
0
0
0
0
0
0
0
0
0
0
0
0
0
0
0
0
0
0
0
0
0
0
0
0
0
0
0
0
0
0
0
0
0
0
0
0
0
0
0
0
0
0
0
0
0
0
0
0
0
